c pcminimize - minimizing a CNF with respect to propagation completeness by iterative removing of absorbed clauses.
c Petr Kucera, 2016-2021
c Version 2.7, revision 59, git hash 4910a71, date 2024-07-16 20:17:42 +0200
p cnf 1148 3029
-222 -252 0
251 -252 0
252 -253 0
187 -253 0
254 -255 0
46 -255 0
-222 -256 0
-46 -256 0
255 256 -257 0
257 -258 0
-187 -258 0
253 258 -259 0
191 -260 0
-246 -260 0
259 -262 0
260 -262 0
261 -262 0
262 -263 0
106 -263 0
264 -265 0
261 -265 0
265 -266 0
191 -266 0
-168 -267 0
246 -267 0
267 -268 0
-191 -268 0
266 268 -269 0
187 -270 0
-222 -270 0
269 -271 0
270 -271 0
251 -271 0
271 -272 0
-106 -272 0
263 272 -273 0
-182 -274 0
97 -274 0
275 -276 0
-97 -276 0
274 276 -277 0
277 -279 0
20 -279 0
278 -279 0
279 -281 0
280 -281 0
281 -282 0
150 -282 0
-182 -283 0
-197 -283 0
283 -284 0
97 -284 0
182 -285 0
197 -285 0
275 -286 0
-197 -286 0
285 286 -287 0
287 -288 0
-97 -288 0
284 288 -289 0
278 -290 0
20 -290 0
132 -291 0
-20 -291 0
290 291 -292 0
289 -293 0
292 -293 0
293 -294 0
-150 -294 0
282 294 -295 0
113 -296 0
-211 -296 0
296 -297 0
149 -297 0
-211 -298 0
113 -298 0
299 -300 0
-113 -300 0
298 300 -301 0
301 -302 0
-149 -302 0
297 302 -303 0
295 -304 0
303 -304 0
304 -306 0
305 -306 0
306 -307 0
82 -307 0
150 -308 0
197 -308 0
309 -310 0
-197 -310 0
308 310 -311 0
311 -312 0
-182 -312 0
312 -313 0
97 -313 0
309 -314 0
182 -314 0
150 -315 0
-182 -315 0
314 315 -316 0
316 -317 0
197 -317 0
309 -318 0
275 -318 0
318 -319 0
-197 -319 0
317 319 -320 0
320 -321 0
-97 -321 0
313 321 -322 0
322 -323 0
20 -323 0
289 -324 0
-150 -324 0
324 -325 0
-20 -325 0
323 325 -326 0
-149 -327 0
216 -327 0
326 -328 0
301 -328 0
327 -328 0
328 -329 0
278 -329 0
329 -330 0
-82 -330 0
307 330 -331 0
-104 -332 0
-233 -332 0
332 -333 0
73 -333 0
233 -334 0
104 -334 0
335 -336 0
-104 -336 0
334 336 -337 0
337 -338 0
-73 -338 0
333 338 -339 0
-109 -340 0
196 -340 0
331 -341 0
339 -341 0
340 -341 0
341 -342 0
217 -342 0
309 -343 0
278 -343 0
343 -344 0
20 -344 0
132 -345 0
-150 -345 0
345 -346 0
-20 -346 0
344 346 -347 0
347 -348 0
305 -348 0
348 -349 0
82 -349 0
309 -350 0
20 -350 0
-150 -351 0
-20 -351 0
350 351 -352 0
352 -353 0
216 -353 0
353 -354 0
278 -354 0
354 -355 0
-82 -355 0
349 355 -356 0
356 -357 0
-97 -357 0
357 -358 0
280 -358 0
358 -359 0
182 -359 0
311 -360 0
278 -360 0
360 -361 0
20 -361 0
132 -362 0
-150 -362 0
-197 -362 0
362 -363 0
-20 -363 0
361 363 -364 0
364 -365 0
305 -365 0
365 -366 0
82 -366 0
311 -367 0
20 -367 0
-150 -368 0
-197 -368 0
368 -369 0
-20 -369 0
367 369 -370 0
370 -371 0
216 -371 0
371 -372 0
278 -372 0
372 -373 0
-82 -373 0
366 373 -374 0
374 -376 0
375 -376 0
376 -377 0
-182 -377 0
359 377 -378 0
-73 -379 0
104 -379 0
233 -379 0
379 -381 0
380 -381 0
381 -382 0
109 -382 0
196 -383 0
384 -385 0
-196 -385 0
383 385 -386 0
386 -387 0
339 -387 0
387 -388 0
-109 -388 0
382 388 -389 0
378 -390 0
389 -390 0
303 -390 0
390 -391 0
-217 -391 0
342 391 -392 0
142 -393 0
204 -393 0
394 -397 0
395 -397 0
396 -397 0
273 -398 0
392 -398 0
393 -398 0
397 -398 0
398 -399 0
99 -399 0
395 -400 0
396 -400 0
273 -401 0
204 -401 0
400 -401 0
401 -402 0
394 -402 0
402 -403 0
142 -403 0
261 -404 0
191 -404 0
-168 -405 0
-191 -405 0
404 405 -406 0
395 -407 0
396 -407 0
407 -408 0
204 -408 0
-184 -409 0
-212 -409 0
409 -410 0
-204 -410 0
408 410 -411 0
106 -412 0
129 -412 0
-246 -412 0
406 -413 0
259 -413 0
411 -413 0
412 -413 0
413 -414 0
-142 -414 0
403 414 -415 0
347 -416 0
303 -416 0
416 -417 0
305 -417 0
417 -418 0
82 -418 0
352 -419 0
301 -419 0
327 -419 0
419 -420 0
278 -420 0
420 -421 0
-82 -421 0
418 421 -422 0
422 -423 0
339 -423 0
340 -423 0
423 -424 0
217 -424 0
356 -425 0
389 -425 0
303 -425 0
425 -426 0
-217 -426 0
424 426 -427 0
415 -428 0
427 -428 0
277 -428 0
-197 -428 0
428 -429 0
-99 -429 0
399 429 -430 0
430 -431 0
431 -432 0
87 -432 0
191 -433 0
-246 -433 0
259 -434 0
433 -434 0
261 -434 0
434 -435 0
106 -435 0
187 -436 0
-222 -436 0
269 -437 0
436 -437 0
251 -437 0
437 -438 0
-106 -438 0
435 438 -439 0
395 -440 0
396 -440 0
439 -441 0
204 -441 0
440 -441 0
441 -442 0
394 -442 0
442 -443 0
142 -443 0
106 -444 0
129 -444 0
-246 -444 0
259 -445 0
411 -445 0
406 -445 0
444 -445 0
445 -446 0
-142 -446 0
443 446 -447 0
82 -448 0
113 -448 0
-211 -448 0
292 -449 0
448 -449 0
305 -449 0
449 -450 0
149 -450 0
451 -452 0
216 -452 0
82 -453 0
-216 -453 0
452 453 -454 0
454 -455 0
278 -455 0
455 -456 0
20 -456 0
454 -457 0
132 -457 0
-82 -458 0
216 -458 0
458 -459 0
-132 -459 0
457 459 -460 0
460 -461 0
-20 -461 0
456 461 -462 0
462 -463 0
301 -463 0
463 -464 0
-149 -464 0
450 464 -465 0
465 -466 0
339 -466 0
340 -466 0
466 -467 0
217 -467 0
462 -468 0
389 -468 0
303 -468 0
468 -469 0
-217 -469 0
467 469 -470 0
-99 -471 0
-150 -471 0
-197 -471 0
447 -472 0
470 -472 0
277 -472 0
471 -472 0
472 -473 0
-87 -473 0
432 473 -474 0
475 -476 0
137 -476 0
-137 -477 0
476 477 -478 0
-8 -479 0
-9 -479 0
10 -479 0
-12 -479 0
-19 -479 0
-22 -479 0
23 -479 0
26 -479 0
29 -479 0
-33 -479 0
-38 -479 0
49 -479 0
-68 -479 0
70 -479 0
71 -479 0
75 -479 0
83 -479 0
91 -479 0
94 -479 0
96 -479 0
103 -479 0
-105 -479 0
-112 -479 0
-118 -479 0
-119 -479 0
124 -479 0
125 -479 0
-130 -479 0
138 -479 0
145 -479 0
147 -479 0
152 -479 0
160 -479 0
163 -479 0
164 -479 0
173 -479 0
175 -479 0
181 -479 0
183 -479 0
188 -479 0
-190 -479 0
198 -479 0
200 -479 0
-202 -479 0
203 -479 0
208 -479 0
-210 -479 0
215 -479 0
218 -479 0
220 -479 0
-221 -479 0
-225 -479 0
-234 -479 0
-235 -479 0
480 -486 0
481 -486 0
482 -486 0
483 -486 0
484 -486 0
485 -486 0
474 -487 0
478 -487 0
479 -487 0
486 -487 0
487 -488 0
144 -488 0
488 -489 0
489 -490 0
490 -491 0
491 -492 0
-239 -492 0
492 -493 0
30 -494 0
493 -495 0
495 -496 0
-102 -497 0
241 -497 0
496 -498 0
497 -498 0
498 -499 0
499 -500 0
500 -501 0
501 -502 0
230 -502 0
502 -503 0
503 -504 0
504 -505 0
121 -505 0
506 -507 0
142 -507 0
164 -508 0
-142 -508 0
507 508 -509 0
509 -510 0
241 -510 0
142 -511 0
-164 -511 0
511 -512 0
-241 -512 0
510 512 -513 0
513 -514 0
235 -514 0
511 -516 0
515 -516 0
516 -517 0
-235 -517 0
514 517 -518 0
150 -519 0
198 -519 0
518 -520 0
519 -520 0
520 -521 0
197 -521 0
506 -522 0
241 -522 0
-164 -523 0
-241 -523 0
522 523 -524 0
524 -525 0
235 -525 0
-164 -526 0
515 -526 0
526 -527 0
-235 -527 0
525 527 -528 0
142 -529 0
198 -529 0
528 -530 0
529 -530 0
309 -530 0
530 -531 0
-197 -531 0
521 531 -532 0
168 -534 0
533 -534 0
534 -535 0
22 -535 0
168 -536 0
210 -536 0
261 -537 0
-210 -537 0
536 537 -538 0
538 -539 0
-22 -539 0
535 539 -540 0
541 -542 0
220 -542 0
130 -543 0
-220 -543 0
542 543 -544 0
-30 -545 0
-75 -545 0
540 -547 0
544 -547 0
545 -547 0
546 -547 0
547 -548 0
221 -548 0
70 -549 0
30 -549 0
546 -550 0
-30 -550 0
549 550 -551 0
551 -552 0
75 -552 0
-30 -553 0
546 -553 0
553 -554 0
-75 -554 0
552 554 -555 0
555 -556 0
541 -556 0
556 -557 0
220 -557 0
558 -559 0
75 -559 0
-30 -560 0
-75 -560 0
559 560 -561 0
561 -562 0
130 -562 0
562 -563 0
546 -563 0
563 -564 0
-220 -564 0
557 564 -565 0
168 -566 0
210 -566 0
565 -568 0
566 -568 0
567 -568 0
568 -569 0
-221 -569 0
548 569 -570 0
532 -571 0
570 -571 0
571 -573 0
572 -573 0
573 -574 0
125 -574 0
506 -575 0
280 -575 0
575 -576 0
142 -576 0
164 -577 0
197 -577 0
577 -578 0
-142 -578 0
576 578 -579 0
579 -580 0
241 -580 0
511 -581 0
280 -581 0
581 -582 0
-241 -582 0
580 582 -583 0
583 -584 0
235 -584 0
280 -585 0
515 -585 0
511 -586 0
585 -586 0
586 -587 0
-235 -587 0
584 587 -588 0
210 -589 0
-221 -589 0
589 -590 0
75 -590 0
591 -592 0
210 -592 0
221 -593 0
-210 -593 0
592 593 -594 0
594 -595 0
-75 -595 0
590 595 -596 0
-30 -597 0
150 -597 0
-152 -597 0
168 -597 0
198 -597 0
546 -598 0
567 -598 0
588 -599 0
596 -599 0
544 -599 0
597 -599 0
598 -599 0
599 -600 0
-125 -600 0
574 600 -601 0
601 -602 0
234 -602 0
509 -603 0
235 -603 0
511 -604 0
-235 -604 0
603 604 -605 0
605 -606 0
519 -606 0
606 -607 0
197 -607 0
506 -608 0
235 -608 0
-164 -609 0
-235 -609 0
608 609 -610 0
610 -611 0
529 -611 0
309 -611 0
611 -612 0
-197 -612 0
607 612 -613 0
-221 -614 0
558 -614 0
614 -615 0
75 -615 0
-30 -616 0
591 -616 0
616 -617 0
-75 -617 0
615 617 -618 0
618 -619 0
168 -619 0
567 -619 0
619 -620 0
210 -620 0
168 -621 0
22 -621 0
261 -622 0
-22 -622 0
621 622 -623 0
-30 -624 0
-75 -624 0
221 -624 0
623 -625 0
624 -625 0
625 -626 0
-210 -626 0
620 626 -627 0
613 -628 0
627 -628 0
628 -629 0
572 -629 0
629 -630 0
125 -630 0
579 -631 0
235 -631 0
511 -632 0
280 -632 0
632 -633 0
-235 -633 0
631 633 -634 0
634 -635 0
596 -635 0
597 -635 0
567 -635 0
635 -636 0
-125 -636 0
630 636 -637 0
130 -638 0
-220 -638 0
241 -638 0
637 -639 0
638 -639 0
546 -639 0
639 -640 0
-234 -640 0
602 640 -641 0
26 -642 0
105 -642 0
-112 -642 0
147 -642 0
-173 -642 0
-182 -642 0
-190 -642 0
200 -642 0
215 -642 0
641 -643 0
642 -643 0
643 -644 0
93 -644 0
316 -645 0
-215 -645 0
645 -646 0
190 -646 0
-215 -647 0
309 -647 0
647 -648 0
182 -648 0
150 -650 0
649 -650 0
650 -651 0
-182 -651 0
648 651 -652 0
652 -653 0
-190 -653 0
646 653 -654 0
654 -655 0
198 -655 0
-150 -656 0
182 -656 0
-215 -656 0
656 -658 0
657 -658 0
658 -659 0
-198 -659 0
655 659 -660 0
660 -661 0
513 -661 0
661 -662 0
197 -662 0
-215 -663 0
275 -663 0
663 -664 0
190 -664 0
-215 -665 0
182 -665 0
649 -666 0
-182 -666 0
665 666 -667 0
667 -668 0
-190 -668 0
664 668 -669 0
524 -670 0
669 -670 0
529 -670 0
309 -670 0
670 -671 0
-197 -671 0
662 671 -672 0
26 -673 0
70 -673 0
200 -673 0
234 -673 0
672 -674 0
673 -674 0
674 -675 0
541 -675 0
675 -676 0
220 -676 0
198 -677 0
150 -677 0
678 -679 0
-150 -679 0
677 679 -680 0
680 -681 0
197 -681 0
198 -682 0
309 -682 0
682 -683 0
-197 -683 0
681 683 -684 0
506 -686 0
685 -686 0
686 -687 0
241 -687 0
-164 -688 0
234 -688 0
688 -689 0
-241 -689 0
687 689 -690 0
684 -691 0
690 -691 0
691 -692 0
142 -692 0
164 -693 0
197 -693 0
241 -693 0
680 -694 0
693 -694 0
685 -694 0
694 -695 0
-142 -695 0
692 695 -696 0
26 -697 0
200 -697 0
698 -699 0
-200 -699 0
697 699 -700 0
696 -701 0
700 -701 0
-215 -701 0
657 -701 0
701 -702 0
182 -702 0
509 -703 0
685 -703 0
703 -704 0
241 -704 0
142 -705 0
-164 -705 0
234 -705 0
705 -706 0
-241 -706 0
704 706 -707 0
707 -708 0
519 -708 0
708 -709 0
197 -709 0
690 -710 0
529 -710 0
309 -710 0
710 -711 0
-197 -711 0
709 711 -712 0
-215 -713 0
190 -713 0
649 -714 0
-190 -714 0
713 714 -715 0
26 -716 0
200 -716 0
712 -717 0
715 -717 0
716 -717 0
717 -718 0
-182 -718 0
702 718 -719 0
719 -720 0
130 -720 0
720 -721 0
546 -721 0
721 -722 0
-220 -722 0
676 722 -723 0
75 -724 0
125 -724 0
168 -724 0
210 -724 0
-221 -724 0
572 -725 0
567 -725 0
723 -726 0
724 -726 0
725 -726 0
726 -727 0
30 -727 0
519 -728 0
197 -728 0
198 -729 0
309 -729 0
729 -730 0
-197 -730 0
728 730 -731 0
524 -732 0
234 -732 0
732 -733 0
541 -733 0
733 -734 0
220 -734 0
690 -735 0
130 -735 0
735 -736 0
-220 -736 0
734 736 -737 0
731 -738 0
737 -738 0
738 -739 0
142 -739 0
234 -740 0
541 -740 0
740 -741 0
220 -741 0
130 -742 0
685 -742 0
742 -743 0
-220 -743 0
741 743 -744 0
150 -745 0
164 -745 0
197 -745 0
198 -745 0
241 -745 0
744 -746 0
745 -746 0
746 -747 0
-142 -747 0
739 747 -748 0
596 -749 0
168 -749 0
749 -750 0
22 -750 0
168 -751 0
210 -751 0
-221 -751 0
751 -752 0
75 -752 0
168 -753 0
591 -753 0
753 -754 0
210 -754 0
221 -755 0
261 -755 0
755 -756 0
-210 -756 0
754 756 -757 0
757 -758 0
-75 -758 0
752 758 -759 0
759 -760 0
-22 -760 0
750 760 -761 0
26 -762 0
-182 -762 0
-190 -762 0
200 -762 0
748 -763 0
761 -763 0
762 -763 0
763 -764 0
215 -764 0
680 -765 0
182 -765 0
519 -766 0
-182 -766 0
765 766 -767 0
767 -768 0
197 -768 0
198 -769 0
309 -769 0
769 -770 0
275 -770 0
770 -771 0
-197 -771 0
768 771 -772 0
772 -773 0
737 -773 0
773 -774 0
142 -774 0
767 -775 0
744 -775 0
693 -775 0
775 -776 0
-142 -776 0
774 776 -777 0
777 -778 0
26 -778 0
778 -779 0
200 -779 0
130 -780 0
182 -780 0
-220 -780 0
696 -781 0
780 -781 0
781 -782 0
698 -782 0
782 -783 0
-200 -783 0
779 783 -784 0
589 -785 0
657 -785 0
785 -786 0
75 -786 0
594 -787 0
-190 -787 0
787 -788 0
-75 -788 0
786 788 -789 0
784 -790 0
789 -790 0
168 -790 0
567 -790 0
790 -791 0
-215 -791 0
764 791 -792 0
792 -793 0
572 -793 0
793 -794 0
125 -794 0
579 -795 0
744 -795 0
795 -796 0
241 -796 0
544 -797 0
705 -797 0
280 -797 0
797 -798 0
-241 -798 0
796 798 -799 0
799 -800 0
596 -800 0
762 -800 0
800 -801 0
215 -801 0
26 -802 0
200 -802 0
234 -802 0
583 -803 0
802 -803 0
275 -803 0
803 -804 0
541 -804 0
804 -805 0
220 -805 0
579 -806 0
685 -806 0
806 -807 0
241 -807 0
705 -808 0
280 -808 0
808 -809 0
-241 -809 0
807 809 -810 0
26 -811 0
275 -811 0
811 -812 0
200 -812 0
182 -813 0
698 -813 0
813 -814 0
-200 -814 0
812 814 -815 0
810 -816 0
815 -816 0
130 -816 0
816 -817 0
-220 -817 0
805 817 -818 0
818 -819 0
789 -819 0
819 -820 0
-215 -820 0
801 820 -821 0
150 -822 0
-152 -822 0
168 -822 0
198 -822 0
821 -823 0
822 -823 0
567 -823 0
823 -824 0
-125 -824 0
794 824 -825 0
825 -826 0
546 -826 0
826 -827 0
-30 -827 0
727 827 -828 0
147 -829 0
-173 -829 0
828 -830 0
829 -830 0
830 -831 0
105 -831 0
832 -833 0
147 -833 0
173 -834 0
-147 -834 0
833 834 -835 0
767 -836 0
509 -836 0
836 -837 0
197 -837 0
506 -838 0
309 -838 0
529 -839 0
838 -839 0
839 -840 0
275 -840 0
840 -841 0
-197 -841 0
837 841 -842 0
551 -843 0
234 -843 0
515 -843 0
843 -844 0
541 -844 0
844 -845 0
220 -845 0
685 -846 0
241 -846 0
234 -847 0
-241 -847 0
846 847 -848 0
848 -849 0
130 -849 0
849 -850 0
558 -850 0
546 -850 0
850 -851 0
-220 -851 0
845 851 -852 0
842 -853 0
852 -853 0
853 -854 0
572 -854 0
854 -855 0
125 -855 0
234 -856 0
515 -856 0
856 -857 0
541 -857 0
857 -858 0
220 -858 0
848 -859 0
130 -859 0
859 -860 0
-220 -860 0
858 860 -861 0
-30 -862 0
150 -862 0
-152 -862 0
198 -862 0
546 -863 0
275 -863 0
579 -864 0
861 -864 0
862 -864 0
863 -864 0
864 -865 0
-125 -865 0
855 865 -866 0
26 -867 0
75 -867 0
168 -867 0
190 -867 0
200 -867 0
210 -867 0
-215 -867 0
-221 -867 0
835 -868 0
866 -868 0
867 -868 0
567 -868 0
868 -869 0
-105 -869 0
831 869 -870 0
-112 -871 0
235 -871 0
870 -872 0
871 -872 0
872 -873 0
-93 -873 0
644 873 -874 0
-3 -875 0
9 -875 0
13 -875 0
14 -875 0
-15 -875 0
19 -875 0
23 -875 0
27 -875 0
-32 -875 0
33 -875 0
-34 -875 0
-35 -875 0
-36 -875 0
37 -875 0
-44 -875 0
-46 -875 0
52 -875 0
-55 -875 0
58 -875 0
-60 -875 0
61 -875 0
-62 -875 0
-65 -875 0
66 -875 0
71 -875 0
-72 -875 0
73 -875 0
74 -875 0
82 -875 0
-83 -875 0
-88 -875 0
-89 -875 0
95 -875 0
96 -875 0
99 -875 0
-101 -875 0
103 -875 0
104 -875 0
106 -875 0
-109 -875 0
113 -875 0
116 -875 0
-117 -875 0
118 -875 0
-122 -875 0
-124 -875 0
129 -875 0
133 -875 0
-136 -875 0
-141 -875 0
143 -875 0
-145 -875 0
149 -875 0
-166 -875 0
-178 -875 0
184 -875 0
-187 -875 0
188 -875 0
191 -875 0
-196 -875 0
202 -875 0
-203 -875 0
211 -875 0
212 -875 0
216 -875 0
-217 -875 0
-218 -875 0
222 -875 0
226 -875 0
-232 -875 0
-233 -875 0
246 -875 0
876 -878 0
877 -878 0
874 -879 0
875 -879 0
878 -879 0
879 -880 0
86 -881 0
-97 -881 0
132 -881 0
208 -881 0
231 -881 0
880 -882 0
881 -882 0
882 -883 0
-90 -884 0
110 -884 0
883 -885 0
884 -885 0
885 -886 0
886 -887 0
20 -887 0
887 -888 0
127 -889 0
-238 -889 0
888 -890 0
889 -890 0
890 -891 0
135 -892 0
891 -893 0
892 -893 0
893 -894 0
894 -895 0
895 -896 0
-167 -897 0
896 -898 0
897 -898 0
898 -899 0
219 -899 0
899 -900 0
900 -901 0
157 -901 0
901 -902 0
902 -903 0
903 -904 0
21 -904 0
96 -905 0
-109 -905 0
-147 -905 0
203 -905 0
905 -906 0
482 -906 0
906 -907 0
112 -907 0
482 -908 0
203 -908 0
-232 -909 0
-203 -909 0
908 909 -910 0
910 -914 0
911 -914 0
912 -914 0
913 -914 0
914 -915 0
-112 -915 0
907 915 -916 0
23 -917 0
145 -917 0
-182 -917 0
208 -917 0
215 -917 0
916 -918 0
917 -918 0
918 -919 0
132 -919 0
-109 -920 0
-147 -920 0
203 -920 0
920 -921 0
112 -921 0
911 -923 0
922 -923 0
912 -923 0
923 -924 0
-112 -924 0
921 924 -925 0
145 -926 0
-182 -926 0
215 -926 0
926 -927 0
23 -927 0
-145 -928 0
-215 -928 0
928 -929 0
182 -929 0
930 -931 0
215 -931 0
-145 -932 0
-215 -932 0
931 932 -933 0
933 -934 0
-182 -934 0
929 934 -935 0
935 -936 0
-23 -936 0
927 936 -937 0
925 -938 0
937 -938 0
938 -939 0
208 -939 0
-23 -940 0
-112 -940 0
-145 -940 0
147 -940 0
-215 -940 0
922 -941 0
275 -941 0
940 -942 0
941 -942 0
942 -943 0
911 -943 0
943 -944 0
-208 -944 0
939 944 -945 0
945 -946 0
96 -946 0
946 -947 0
482 -947 0
947 -948 0
-132 -948 0
919 948 -949 0
950 -951 0
19 -951 0
-33 -952 0
-19 -952 0
951 952 -953 0
71 -954 0
83 -954 0
-97 -954 0
103 -954 0
-202 -954 0
218 -954 0
949 -956 0
953 -956 0
954 -956 0
955 -956 0
956 -958 0
957 -958 0
958 -959 0
188 -959 0
-83 -960 0
-103 -960 0
118 -960 0
-218 -960 0
960 -961 0
97 -961 0
218 -963 0
955 -963 0
962 -963 0
963 -964 0
83 -964 0
-103 -965 0
118 -965 0
965 -967 0
966 -967 0
967 -968 0
-83 -968 0
964 968 -969 0
969 -970 0
-97 -970 0
961 970 -971 0
-109 -972 0
-147 -972 0
972 -973 0
112 -973 0
912 -974 0
911 -974 0
974 -975 0
-112 -975 0
973 975 -976 0
145 -977 0
278 -977 0
977 -978 0
23 -978 0
-132 -979 0
930 -979 0
979 -980 0
-23 -980 0
978 980 -981 0
976 -982 0
981 -982 0
982 -983 0
96 -983 0
23 -984 0
-112 -984 0
132 -984 0
145 -984 0
912 -985 0
911 -985 0
984 -986 0
985 -986 0
986 -987 0
-96 -987 0
983 987 -988 0
-182 -989 0
208 -989 0
971 -990 0
988 -990 0
953 -990 0
989 -990 0
990 -991 0
215 -991 0
955 -992 0
962 -992 0
992 -993 0
83 -993 0
965 -994 0
-83 -994 0
993 994 -995 0
995 -996 0
953 -996 0
-97 -996 0
275 -996 0
996 -997 0
218 -997 0
19 -998 0
33 -998 0
998 -999 0
182 -999 0
953 -1000 0
-182 -1000 0
999 1000 -1001 0
1001 -1002 0
97 -1002 0
953 -1003 0
275 -1003 0
1003 -1004 0
-97 -1004 0
1002 1004 -1005 0
-83 -1006 0
-103 -1006 0
118 -1006 0
1005 -1007 0
1006 -1007 0
1007 -1008 0
-218 -1008 0
997 1008 -1009 0
-109 -1010 0
-147 -1010 0
208 -1010 0
1010 -1011 0
112 -1011 0
912 -1012 0
208 -1012 0
147 -1013 0
-208 -1013 0
1012 1013 -1014 0
1014 -1015 0
911 -1015 0
1015 -1016 0
-112 -1016 0
1011 1016 -1017 0
-23 -1018 0
96 -1018 0
-132 -1018 0
-145 -1018 0
1009 -1019 0
1017 -1019 0
1018 -1019 0
1019 -1020 0
-215 -1020 0
991 1020 -1021 0
1021 -1022 0
124 -1022 0
1022 -1023 0
482 -1023 0
1023 -1024 0
203 -1024 0
-232 -1025 0
913 -1025 0
1025 -1026 0
132 -1026 0
96 -1027 0
482 -1027 0
1027 -1028 0
-132 -1028 0
1026 1028 -1029 0
1029 -1030 0
145 -1030 0
1030 -1031 0
23 -1031 0
96 -1032 0
-132 -1032 0
1032 -1033 0
482 -1033 0
1033 -1034 0
930 -1034 0
1034 -1035 0
-23 -1035 0
1031 1035 -1036 0
971 -1037 0
1036 -1037 0
953 -1037 0
989 -1037 0
912 -1037 0
1037 -1038 0
215 -1038 0
1009 -1039 0
1014 -1039 0
1018 -1039 0
482 -1039 0
1039 -1040 0
-215 -1040 0
1038 1040 -1041 0
1041 -1042 0
-112 -1042 0
911 -1042 0
1042 -1043 0
957 -1043 0
1043 -1044 0
-203 -1044 0
1024 1044 -1045 0
1045 -1048 0
1046 -1048 0
1047 -1048 0
1048 -1049 0
-188 -1049 0
959 1049 -1050 0
73 -1051 0
-91 -1051 0
-196 -1051 0
-233 -1051 0
1050 -1052 0
1051 -1052 0
1052 -1053 0
9 -1053 0
96 -1054 0
-109 -1054 0
-147 -1054 0
1054 -1055 0
112 -1055 0
912 -1056 0
911 -1056 0
913 -1056 0
1056 -1057 0
-112 -1057 0
1055 1057 -1058 0
1058 -1059 0
132 -1059 0
976 -1060 0
96 -1060 0
1060 -1061 0
-132 -1061 0
1059 1061 -1062 0
1062 -1063 0
482 -1063 0
1063 -1064 0
203 -1064 0
912 -1065 0
911 -1065 0
1029 -1066 0
-112 -1066 0
1065 -1066 0
1066 -1067 0
-203 -1067 0
1064 1067 -1068 0
71 -1069 0
-233 -1069 0
953 -1070 0
1069 -1070 0
1070 -1071 0
877 -1071 0
1071 -1072 0
73 -1072 0
-33 -1073 0
91 -1073 0
1073 -1075 0
1074 -1075 0
1075 -1076 0
335 -1076 0
1047 -1076 0
1076 -1077 0
-73 -1077 0
1072 1077 -1078 0
83 -1079 0
-97 -1079 0
103 -1079 0
-202 -1079 0
218 -1079 0
1068 -1080 0
1078 -1080 0
1079 -1080 0
1080 -1081 0
957 -1081 0
380 -1081 0
1081 -1082 0
188 -1082 0
-83 -1083 0
-103 -1083 0
-218 -1083 0
1083 -1084 0
97 -1084 0
218 -1085 0
962 -1085 0
1085 -1086 0
83 -1086 0
-103 -1087 0
966 -1087 0
1087 -1088 0
-83 -1088 0
1086 1088 -1089 0
1089 -1090 0
-97 -1090 0
1084 1090 -1091 0
953 -1092 0
-233 -1092 0
1046 -1092 0
1092 -1093 0
877 -1093 0
1093 -1094 0
73 -1094 0
-233 -1095 0
202 -1095 0
335 -1096 0
-202 -1096 0
1095 1096 -1097 0
1097 -1098 0
1073 -1098 0
1074 -1098 0
1098 -1099 0
-73 -1099 0
1094 1099 -1100 0
1062 -1101 0
124 -1101 0
1101 -1102 0
482 -1102 0
1102 -1103 0
203 -1103 0
912 -1104 0
911 -1104 0
1029 -1105 0
-112 -1105 0
1104 -1105 0
1105 -1106 0
957 -1106 0
1106 -1107 0
-203 -1107 0
1103 1107 -1108 0
1091 -1109 0
1100 -1109 0
1108 -1109 0
-196 -1109 0
1109 -1110 0
1047 -1110 0
1110 -1111 0
-188 -1111 0
1082 1111 -1112 0
1112 -1113 0
917 -1113 0
1113 -1115 0
955 -1115 0
1114 -1115 0
1115 -1116 0
-9 -1116 0
1053 1116 -1117 0
-246 -1118 0
106 -1118 0
264 -1119 0
-106 -1119 0
1118 1119 -1120 0
-2 -1121 0
-22 -1121 0
26 -1121 0
-32 -1121 0
46 -1121 0
70 -1121 0
-74 -1121 0
75 -1121 0
85 -1121 0
99 -1121 0
-104 -1121 0
-105 -1121 0
113 -1121 0
125 -1121 0
129 -1121 0
130 -1121 0
149 -1121 0
152 -1121 0
154 -1121 0
-164 -1121 0
165 -1121 0
-168 -1121 0
171 -1121 0
173 -1121 0
184 -1121 0
187 -1121 0
-190 -1121 0
191 -1121 0
198 -1121 0
200 -1121 0
-210 -1121 0
-211 -1121 0
212 -1121 0
216 -1121 0
-217 -1121 0
220 -1121 0
-221 -1121 0
-222 -1121 0
234 -1121 0
1122 -1125 0
309 -1125 0
1123 -1125 0
451 -1125 0
1124 -1125 0
515 -1125 0
1117 -1126 0
1120 -1126 0
1121 -1126 0
1125 -1126 0
1126 -1127 0
1127 -1128 0
20 -1129 0
1128 -1130 0
1129 -1130 0
1130 -1131 0
-235 -1132 0
1131 -1133 0
1132 -1133 0
1133 -1134 0
1134 -1135 0
1135 -1136 0
1136 -1138 0
1137 -1138 0
1138 -1139 0
142 -1140 0
1139 -1141 0
1140 -1141 0
1141 -1142 0
-197 -1143 0
244 -1143 0
1142 -1144 0
1143 -1144 0
1144 -1145 0
1146 -1147 0
-121 -1147 0
1148 0
1 0
4 0
-5 0
6 0
7 0
16 0
-17 0
-24 0
25 0
-31 0
39 0
40 0
41 0
42 0
43 0
-45 0
47 0
48 0
-50 0
51 0
53 0
-54 0
-56 0
-57 0
59 0
-63 0
-67 0
69 0
-76 0
77 0
79 0
80 0
-81 0
-84 0
92 0
-98 0
-100 0
107 0
108 0
111 0
114 0
-115 0
-120 0
123 0
-126 0
-128 0
131 0
-134 0
139 0
-140 0
-146 0
-148 0
-151 0
-153 0
-155 0
-156 0
-158 0
-159 0
-161 0
162 0
169 0
170 0
174 0
-176 0
179 0
-185 0
186 0
189 0
-192 0
-193 0
-194 0
195 0
199 0
201 0
205 0
206 0
-207 0
-209 0
-213 0
223 0
224 0
-227 0
-228 0
-236 0
-237 0
240 0
-242 0
243 0
-245 0
247 0
-248 0
-249 0
-250 0
-1146 1147 0
-1144 1145 0
-1143 1144 0
-244 1143 0
-1142 1144 0
-1141 1142 0
-1140 1141 0
-1139 1141 0
121 1147 0
-1137 1138 0
-1135 1136 0
-1134 1135 0
-1130 1131 0
-1128 1130 0
-1127 1128 0
-1126 1127 0
-1125 1126 0
-1124 1125 0
177 1124 0
-28 1123 0
-1122 1125 0
172 1122 0
-1121 1126 0
-171 1121 0
-165 1121 0
-85 1121 0
2 1121 0
-1129 1130 0
-1120 1126 0
-1119 1120 0
-1118 1120 0
-1117 1126 0
-1116 1117 0
214 1114 0
-1113 1115 0
-1112 1113 0
-1111 1112 0
-1107 1108 0
-1105 1106 0
-1103 1108 0
-1099 1100 0
-1096 1097 0
-1092 1093 0
-1090 1091 0
-1086 1089 0
-1085 1086 0
-1082 1112 0
-1081 1082 0
-1079 1080 0
-1078 1080 0
-1077 1078 0
-1070 1071 0
-1067 1068 0
-1066 1067 0
-1065 1066 0
-1061 1062 0
-1060 1061 0
-1059 1062 0
-1057 1058 0
-1056 1057 0
-1054 1055 0
-1053 1117 0
-1051 1052 0
-1050 1052 0
-1049 1050 0
188 1049 1111 0
71 1047 0
-1045 1048 0
-1041 1042 0
-1040 1041 0
-1039 1040 0
-1038 1041 0
-1036 1037 0
-1023 1024 0
-1019 1020 0
-1018 1019 1039 0
-1014 1015 1039 0
-1009 1019 1039 0
-1007 1008 0
-1006 1007 0
-1004 1005 0
-1002 1005 0
-999 1001 0
-996 997 0
-994 995 0
-990 991 0
-987 988 0
-983 988 0
-982 983 0
-980 981 0
-979 980 0
-977 978 0
-975 976 0
-974 975 0
-973 976 0
-971 990 1037 0
-969 970 0
-967 968 0
-500 501 0
-499 500 0
220 543 564 638 722 736 743 780 817 851 860 0
-241 497 510 515 522 580 638 687 693 704 745 796 807 846 0
-496 498 0
149 302 327 464 0
156 494 884 0
-493 495 0
-988 990 0
-491 492 0
-490 491 0
-271 272 0
-486 487 0
-445 446 0
-1016 1017 0
-357 358 0
-484 486 0
-526 527 0
-946 947 0
-1074 1075 1098 0
232 482 875 909 1025 0
-481 486 0
-972 973 0
-317 320 0
-163 479 0
-480 486 0
-64 480 0
-981 982 0
-528 530 0
-740 741 0
-1131 1133 0
-479 487 0
-1088 1089 0
-417 418 0
-1080 1081 0
-832 833 0
235 479 517 527 587 604 609 633 1132 0
234 479 640 685 0
-592 594 0
-693 694 775 0
-805 818 0
-218 479 954 963 966 997 1079 1085 0
-200 479 642 673 697 716 762 779 802 812 867 1121 0
-739 748 0
-181 479 0
-427 428 0
-173 479 832 834 1121 0
-1075 1076 0
-421 422 0
-978 981 0
-700 701 0
-908 910 0
-955 956 963 992 1115 0
-989 990 1037 0
-1043 1044 0
-385 386 0
-152 479 572 1121 0
-147 479 642 829 833 912 940 1013 0
-265 266 0
-557 565 0
-138 479 0
-1020 1021 0
-30 494 549 558 727 0
-1010 1011 0
130 479 541 0
-641 643 0
-325 326 0
-485 486 0
184 395 409 0
-525 528 0
-947 948 0
-220 479 542 557 676 734 741 805 845 858 1121 0
-951 953 0
-1108 1109 0
-483 486 0
-1132 1133 0
-663 664 0
-848 849 859 0
-262 263 0
-478 487 0
-324 325 0
-929 935 0
112 479 642 871 915 924 940 975 984 1016 1042 1057 1066 1105 0
-567 568 598 619 635 725 790 823 868 0
-765 767 0
105 479 869 1121 0
-103 479 875 954 962 1079 0
-1069 1070 0
-91 479 877 1073 0
-822 823 0
-720 721 0
-666 667 0
-786 789 0
-656 658 0
-70 479 546 549 673 1121 0
22 479 539 567 622 760 1121 0
-463 464 0
-22 535 567 621 750 0
-1029 1030 1066 1105 0
-487 488 0
208 944 1013 0
-23 479 875 917 927 978 984 1031 0
-616 617 0
-936 937 0
-717 718 0
-839 840 0
-709 712 0
-601 602 0
-838 839 0
-415 428 0
-727 828 0
-303 304 390 416 425 468 0
-825 826 0
-876 878 0
-984 986 0
33 479 950 952 1073 0
-881 882 0
-266 269 0
-548 570 0
-1109 1110 0
-898 899 0
-495 496 0
-26 479 642 673 697 698 716 762 778 802 811 867 1121 0
-291 292 0
-270 271 0
-690 691 710 735 0
-1083 1084 0
-903 904 0
-966 967 1087 0
-737 738 773 0
113 300 0
-408 411 0
-605 606 0
-183 479 0
-816 817 0
-475 476 0
11 475 0
-474 487 0
75 545 554 560 595 617 624 758 788 0
-472 473 0
-1084 1091 0
-471 472 0
180 481 0
-731 738 0
-940 942 0
-469 470 0
-346 347 0
200 699 783 814 0
-468 469 0
-888 890 0
-465 466 0
-397 398 0
-645 646 0
-464 465 0
-673 674 0
-1115 1116 0
-462 463 468 0
-761 763 0
-461 462 0
-460 461 0
-459 460 0
-458 459 0
-1093 1094 0
-602 641 0
-649 650 666 714 0
-455 456 0
-759 760 0
-232 482 0
-1110 1111 0
-454 455 457 0
-9 875 1053 0
-363 364 0
136 875 0
-998 999 0
-1042 1043 0
-835 868 0
-453 454 0
-713 715 0
-545 547 0
-1104 1105 0
-446 447 0
-137 476 0
-444 445 0
-233 334 335 379 0
-703 704 0
-540 547 0
-757 758 0
-651 652 0
198 659 678 0
-763 764 0
-328 329 0
-13 875 0
-124 479 957 1022 1101 0
-476 478 0
-782 783 0
-321 322 0
-932 933 0
-217 342 424 467 0
-878 879 0
-1028 1029 0
-371 372 0
-428 429 0
-577 578 0
-320 321 0
197 280 283 286 310 319 362 368 428 471 531 612 671 683 711 730 771 841 1143 0
-377 378 0
-1048 1049 0
-924 925 0
109 340 388 875 905 911 920 972 1010 1054 0
-573 574 0
-834 835 0
-1037 1038 0
-359 378 0
-279 281 0
-502 503 0
-873 874 0
99 429 471 0
-819 820 0
-312 313 0
-1031 1036 0
-358 359 0
-711 712 0
-1032 1033 0
68 479 0
-366 374 0
-921 925 0
-985 986 0
168 261 267 405 1121 0
-599 600 0
-1034 1035 0
-208 479 881 917 939 989 1010 1012 0
-374 376 0
-501 502 0
-551 552 843 0
-307 331 0
-644 874 0
-419 420 0
-305 306 348 365 417 449 0
-633 634 0
-536 538 0
-1026 1029 0
-370 371 0
-144 488 0
-482 486 906 908 947 1023 1027 1033 1039 1063 1102 0
-301 302 328 419 463 0
-364 365 0
-300 301 0
-794 825 0
-298 301 0
-204 393 401 408 441 875 1121 0
-803 804 0
-350 352 0
-296 297 0
102 497 0
-435 439 0
150 294 309 324 345 351 362 368 471 656 679 0
-595 596 0
93 873 0
-175 479 0
82 330 355 373 421 451 458 0
-780 781 0
221 479 569 589 591 614 724 751 867 1121 0
-257 258 0
-413 414 0
-609 610 0
-1136 1138 0
19 479 952 1074 0
-256 257 0
-376 377 0
-267 268 0
-563 564 0
-287 288 0
-790 791 0
-14 875 0
-264 265 1119 0
-251 252 271 437 0
-771 772 0
-316 317 645 0
-518 520 0
87 473 0
12 479 0
-263 273 0
-1015 1016 0
-355 356 0
-132 278 291 345 362 457 881 919 984 1026 1059 0
-253 259 0
-255 257 0
-66 875 0
-1138 1139 0
18 483 0
-726 727 0
-260 262 0
-768 772 0
-188 479 875 959 1082 0
-744 746 775 795 0
-579 580 631 795 806 864 0
-814 815 0
-164 479 506 508 577 693 745 0
-997 1009 0
-142 393 403 443 507 511 529 576 692 705 739 774 1140 0
-82 307 349 366 418 448 451 453 875 0
-293 294 0
-692 696 0
-226 875 0
-677 680 0
-1003 1004 0
-191 260 266 404 433 875 1121 0
-258 259 0
190 479 642 653 657 668 714 762 787 1121 0
-288 289 0
-937 938 0
-284 289 0
-168 261 534 536 566 597 619 621 724 749 751 753 790 822 867 0
225 479 0
-382 389 0
-323 326 0
-546 547 550 553 563 598 639 721 826 850 863 0
-384 385 0
-473 474 0
104 332 336 1121 0
129 394 0
-404 406 0
-222 254 875 0
-688 689 0
-274 277 0
-678 679 0
-203 479 905 908 920 922 1024 1064 1103 0
-948 949 0
-723 726 0
-46 251 255 1121 0
-710 711 0
-215 479 642 649 764 801 917 926 931 991 1038 0
-1030 1031 0
-372 373 0
-578 579 0
-1022 1023 0
-368 369 0
-423 424 0
246 260 264 412 433 444 1118 0
-311 312 360 367 0
-513 514 661 0
-1012 1014 0
-352 353 419 0
-992 993 0
38 479 0
-751 752 0
-235 514 525 584 603 608 631 871 0
-872 873 0
-1033 1034 0
-373 374 0
-299 300 0
-273 398 401 0
-995 996 0
-334 337 0
-187 253 270 436 1121 0
-295 304 0
-381 382 0
-254 255 0
73 338 379 1077 1099 0
-341 342 0
-1133 1134 0
-393 398 0
-282 295 0
46 251 256 875 0
-182 275 285 314 359 648 656 665 702 765 780 813 929 999 0
-73 333 875 1051 1072 1094 0
-378 390 0
-20 279 290 323 344 350 361 367 456 887 1129 0
-268 269 0
-313 322 0
-426 427 0
-931 933 0
-566 568 0
-306 307 0
-831 870 0
-269 271 437 0
-1008 1009 0
-570 571 0
-667 668 0
-788 789 0
-1095 1097 0
-1091 1109 0
-104 334 379 875 0
196 380 385 875 1051 1109 0
-456 462 0
-488 489 0
-991 1021 0
-362 363 0
-606 607 0
-294 295 0
-799 800 0
-272 273 0
233 332 335 875 1051 1069 1092 1095 0
-705 706 797 808 0
-457 460 0
-416 417 0
-351 352 0
-448 449 0
-281 282 0
-694 695 0
-365 366 0
-278 279 290 329 343 354 360 372 420 455 977 0
-787 788 0
-184 395 875 1121 0
-290 292 0
-246 264 267 875 0
-1063 1064 0
-610 611 0
-596 599 635 749 800 0
-847 848 0
-549 551 0
182 274 275 283 312 315 377 642 651 666 718 762 766 917 926 934 989 1000 0
-862 864 0
-1076 1077 0
9 479 1116 0
-97 274 284 313 375 961 1002 1084 0
-589 590 785 0
-492 493 0
-911 914 923 943 974 985 1015 1042 1056 1065 1104 0
-662 672 0
-1073 1075 1098 0
-418 422 0
241 512 515 523 582 689 706 798 809 847 0
-405 406 0
-604 605 0
-926 927 0
-292 293 449 0
-691 692 0
-380 381 1081 0
-10 479 0
97 276 288 321 357 375 881 954 970 996 1004 1079 1090 0
-276 277 0
217 391 426 469 875 1121 0
-1035 1036 0
-375 376 0
-1027 1028 0
-369 370 0
8 479 0
-280 281 358 575 581 585 632 797 808 0
-150 282 308 309 315 519 597 650 677 745 822 862 0
-466 467 0
-565 568 0
-343 344 0
-411 413 445 0
-283 284 0
106 272 438 1119 0
-390 391 0
-590 596 0
-398 399 0
-583 584 803 0
-503 504 0
-391 392 0
-106 263 412 435 444 875 1118 0
-392 398 0
-897 898 0
-524 525 670 732 0
-75 479 552 559 590 615 724 752 786 867 1121 0
-261 262 265 404 434 537 622 755 0
-793 794 0
-196 340 380 383 0
-1047 1048 1076 1110 0
-342 392 0
-1021 1022 0
202 479 954 1046 1079 1096 0
-344 347 0
-345 346 0
-149 297 450 875 1121 0
-928 929 0
-340 341 423 466 0
-970 971 0
-347 348 416 0
-348 349 0
132 278 459 948 979 1018 1028 1032 1061 0
-349 356 0
-554 555 0
-332 333 0
-310 311 0
-512 513 0
-353 354 0
-1052 1053 0
-83 479 954 964 993 1079 1086 0
-1013 1014 0
-354 355 0
119 479 0
-655 660 0
-439 441 0
-314 316 0
-514 518 0
-211 299 875 0
-1011 1017 0
-356 357 425 0
-29 479 0
-741 744 0
-521 532 0
-752 759 0
20 291 325 346 351 363 369 461 0
-360 361 0
-145 479 917 926 930 977 984 1030 0
-902 903 0
-886 887 0
-434 435 0
-379 381 0
-402 403 0
-109 382 911 0
-477 478 0
-322 323 0
212 396 409 0
-672 674 0
-395 397 400 407 440 0
-1100 1109 0
-643 644 0
-326 328 0
-1106 1107 0
-451 452 1125 0
-383 386 0
-1024 1045 0
-386 387 0
-773 774 0
-541 542 556 675 733 740 804 844 857 0
-1044 1045 0
-387 388 0
-498 499 0
-923 924 0
-449 450 0
-230 502 0
-585 586 0
-892 893 0
-1046 1048 1092 0
-389 390 425 468 0
-452 454 0
-125 479 574 630 724 794 855 1121 0
-49 479 0
-129 394 412 444 875 1121 0
-394 397 402 442 0
-906 907 0
-532 571 0
-212 396 875 1121 0
-965 967 994 0
-99 399 875 1121 0
-400 401 0
-396 397 400 407 440 0
-401 402 0
-403 415 0
-406 413 445 0
-216 305 327 353 371 452 458 875 1121 0
-591 592 616 753 0
34 875 0
-154 1121 0
-875 879 0
-160 479 0
-1058 1059 0
-409 410 0
204 410 0
-78 485 0
-252 253 0
-410 411 0
-497 498 0
-706 707 0
-412 413 0
-626 627 0
-429 430 0
-516 517 0
-19 875 951 998 1074 0
142 414 446 508 578 695 747 776 0
-470 472 0
-286 287 0
-712 717 0
-420 421 0
-1071 1072 0
-422 423 0
-957 958 1043 1081 1106 0
-870 872 0
-424 427 0
-425 426 0
-854 855 0
-315 316 0
-517 518 0
-319 320 0
-603 605 0
-930 931 979 1034 0
-432 474 0
-943 944 0
-494 495 1135 0
-910 914 0
-32 384 0
-437 438 0
-94 479 0
-438 439 0
-442 443 0
-954 956 0
-450 465 0
3 875 0
-121 505 0
-308 311 0
-510 513 0
164 506 511 523 526 609 688 705 1121 0
-302 303 0
-506 507 522 575 608 686 838 0
-840 841 0
-304 306 0
-507 509 0
-841 842 0
-309 310 314 318 343 350 530 611 647 670 682 710 729 769 838 1125 0
-509 510 603 703 836 0
-511 512 516 581 586 604 632 0
-968 969 0
-515 516 526 585 843 856 1125 0
-611 612 0
-729 730 0
-889 890 0
-927 937 0
-520 521 0
-522 524 0
-976 982 1060 0
-755 756 0
-523 524 0
-944 945 0
-388 389 0
-958 959 0
-527 528 0
-919 949 0
-529 530 611 670 710 839 0
23 936 940 980 1018 1035 0
-942 943 0
-531 532 0
-210 533 536 566 589 592 620 724 751 754 867 0
-533 534 0
-133 875 0
-534 535 0
-535 540 0
-754 757 0
-537 538 0
-538 539 0
-539 540 0
-874 879 0
-130 541 543 562 638 720 735 742 780 816 849 859 1121 0
-542 544 0
-543 544 0
-750 761 0
-760 761 0
30 545 550 553 558 560 597 616 624 827 862 0
-431 432 0
-628 629 0
70 546 0
-547 548 0
-1089 1090 0
-883 885 0
-221 548 591 593 624 755 0
-329 330 0
-550 551 0
-647 648 0
-331 341 0
-552 555 0
-648 652 0
-330 331 0
-553 554 0
-650 651 0
-335 336 1076 1096 0
-555 556 0
-652 653 0
-339 341 387 423 466 0
-556 557 0
-558 559 614 850 0
-891 893 0
-336 337 0
-559 561 0
118 479 955 0
-654 655 0
-337 338 0
-560 561 0
-333 339 0
-561 562 0
-778 779 0
-338 339 0
-562 563 0
-781 782 0
191 268 405 0
-564 565 0
-571 573 0
-664 669 0
-143 875 0
152 572 597 822 862 0
-807 810 0
-849 850 0
-572 573 629 725 793 854 0
-574 601 0
-575 576 0
-671 672 0
-576 579 0
-580 583 0
-581 582 0
-582 583 0
-489 490 0
-917 918 1113 0
-584 588 0
-586 587 0
-587 588 0
-701 702 0
-588 599 0
-593 594 0
-846 848 0
-594 595 787 0
-597 599 635 0
187 258 875 0
-764 792 0
-598 599 0
-668 669 0
125 600 636 824 865 0
-625 626 0
-1055 1058 0
-600 601 0
-836 837 0
-234 602 673 685 688 705 732 740 802 843 847 856 1121 0
-1062 1063 1101 0
-608 610 0
-861 864 0
-612 613 0
-762 763 800 0
-850 851 0
-615 618 0
-617 618 0
-853 854 0
-618 619 0
-863 864 0
-619 620 0
-399 430 0
-620 627 0
-96 479 875 905 913 946 983 1018 1027 1032 1054 1060 0
-621 623 0
-622 623 0
-858 861 0
-1087 1088 0
-623 625 0
-860 861 0
-624 625 0
239 492 0
-430 431 0
-627 628 0
-436 437 0
-629 630 0
-361 364 0
-135 892 0
-630 637 0
-631 634 0
-440 441 0
-632 633 0
-433 434 0
-634 635 0
-636 637 0
-1097 1098 0
-637 639 0
-1098 1099 0
-639 640 0
-880 882 0
-1094 1100 0
-640 641 0
-105 642 831 0
173 642 829 832 0
-953 956 990 996 1000 1003 1037 1070 1092 0
-642 643 0
215 645 647 649 656 663 665 701 713 791 820 867 928 932 940 1020 1040 0
-190 646 657 664 713 867 0
-646 654 0
-653 654 0
-775 776 0
-1114 1115 0
-657 658 701 785 0
-1101 1102 0
-443 447 0
-893 894 0
-658 659 0
-659 660 0
-660 661 0
-52 875 0
-779 784 0
-783 784 0
-665 667 0
-785 786 0
-127 889 0
-669 670 0
-670 671 0
-674 675 0
26 698 0
-675 676 0
-676 723 0
-679 680 0
-680 681 694 765 0
89 875 0
-681 684 0
-682 683 0
-802 803 0
-683 684 0
-684 691 0
-685 686 694 703 742 806 846 0
-686 687 0
-687 690 0
-695 696 0
-1017 1019 0
-804 805 0
-697 700 0
-698 699 782 813 0
-818 819 0
-699 700 0
-702 719 0
-704 707 0
-277 279 428 472 0
-707 708 0
-71 479 875 954 1047 1069 0
-827 828 0
44 875 0
-708 709 0
-37 875 0
-289 293 324 0
-715 717 0
-716 717 0
-718 719 0
-721 722 0
-722 723 0
-724 726 0
-885 886 0
-1102 1103 0
-725 726 0
-728 731 0
-714 715 0
-938 939 0
-730 731 0
-941 942 0
-732 733 0
-733 734 0
-734 737 0
-61 875 0
-735 736 0
-986 987 0
-736 737 0
-738 739 0
-742 743 0
-743 744 0
-745 746 0
-746 747 0
-952 953 0
-318 319 0
-747 748 0
-748 763 0
-749 750 0
-753 754 0
-758 759 0
-766 767 0
-767 768 775 836 0
-769 770 0
-770 771 0
-772 773 0
-774 777 0
-776 777 0
-544 547 599 797 0
-777 778 0
-784 790 0
-789 790 819 0
-791 792 0
-792 793 0
145 875 928 930 932 940 1018 0
-1000 1001 0
-795 796 0
-1001 1002 0
-796 799 0
-797 798 0
-800 801 0
-801 821 0
-884 885 0
-568 569 0
-806 807 0
-569 570 0
-808 809 0
-809 810 0
-197 280 285 308 317 521 577 607 662 681 693 709 728 745 768 837 0
-810 816 0
-811 812 0
-812 815 0
-813 814 0
15 875 0
-815 816 0
-202 875 1046 1095 0
-817 818 0
-820 821 0
-821 823 0
-231 881 0
-823 824 0
-33 875 950 998 0
-689 690 0
-909 910 0
-824 825 0
-259 262 413 434 445 0
-912 914 923 974 985 1012 1037 1056 1065 1104 0
103 960 962 965 1006 1083 1087 0
-826 827 0
-828 830 0
-829 830 0
210 479 533 537 593 626 756 1121 0
-830 831 0
-833 835 0
-719 720 0
-939 945 0
147 834 905 912 920 972 1010 1054 0
216 305 453 0
-837 842 0
-842 853 0
-844 845 0
-118 875 955 960 965 1006 0
-845 852 0
-851 852 0
-852 853 0
-1068 1080 0
-613 628 0
-855 866 0
-407 408 0
-856 857 0
-857 858 0
-414 415 0
-864 865 0
-614 615 0
-865 866 0
-866 868 0
-867 868 0
-868 869 0
-869 870 0
-871 872 0
-635 636 0
-27 875 0
35 875 0
36 875 0
-907 916 0
-993 995 0
55 875 0
-285 287 0
-935 936 0
-58 875 0
-798 799 0
60 875 0
-1005 1007 0
62 875 0
65 875 0
72 875 0
83 875 960 968 994 1006 1083 1088 0
-859 860 0
88 875 0
-95 875 0
101 875 0
-116 875 0
-901 902 0
117 875 0
-467 470 0
-661 662 0
122 875 0
-1123 1125 0
124 875 957 0
141 875 0
166 875 0
178 875 0
-945 946 0
-1025 1026 0
-367 370 0
203 875 909 922 1044 1067 1107 0
-843 844 0
218 875 960 966 1008 1083 0
-607 613 0
-229 876 0
91 877 1051 0
-877 878 1071 1093 0
-879 880 0
-638 639 0
-86 881 0
-882 883 0
-1064 1068 0
90 884 0
-110 884 0
-887 888 0
238 889 0
-441 442 0
-890 891 0
-447 472 0
-894 895 0
-895 896 0
-113 296 298 448 875 1121 0
-896 898 0
-756 757 0
167 897 0
-899 900 0
-900 901 0
-327 328 419 0
-508 509 0
-157 901 0
-530 531 0
-21 904 0
-905 906 0
-112 907 921 973 1011 1055 0
-1072 1078 0
96 913 987 0
-913 914 1025 1056 0
-914 915 0
-915 916 0
-916 918 0
-696 701 781 0
-918 919 0
-920 921 0
-922 923 941 0
-275 276 286 318 663 770 803 811 840 863 941 996 1003 0
-925 938 0
-933 934 0
-504 505 0
-934 935 0
-949 956 0
-950 951 0
-519 520 606 708 728 766 0
-297 303 0
-956 958 0
-219 899 0
-959 1050 0
-960 961 0
-961 971 0
-962 963 992 1085 0
-963 964 0
-964 969 0
